webassembly/ejemplos_dzn/folder3_json_74.dzn
TERM = { '.', 's(2)', 'local_1', 's(1)', 's(0)', 'in_0'};
null = '.';
s = 3;
n = 8;
ndeps = 1;
max_registers_sz = 3;
NR = 0;
registers = [| |];
dependencies = [|'i32.load8_u_0', 'call[function_index(0)]_2'|];
GET_ENUM = { GET1, GET2, GET3};
SET_ENUM = { SET1, SET2, SET3};
TEE_ENUM = { TEE1, TEE2, TEE3};
N = 3;
OP = { 'call[function_index(0)]_2', 'i32.load8_u_0', 'local.get_0' };
in_ops = [1, 1, 0 ];
out_ops = [2, 1, 1 ];
in1 = ['local_1', 'in_0', '.' ];
in2 = ['.', '.', '.' ];
in3 = ['.', '.', '.' ];
out1 = ['s(2)', 's(0)', 'local_1' ];
out2 = ['s(1)', '.', '.' ];
out3 = ['.', '.', '.' ];
comm = [false, false, false ];
gas = [1, 1, 1 ];
sz = [1, 1, 1 ];
stor = [true, false, false ];
lb = [ 1, 1, 1 ];
ub = [ 3, 3, 3 ];
startstack = [ 'in_0', null, null, null, null, null, null, null ];
endstack = [ 's(2)', 's(1)', 's(0)', null, null, null, null, null ];
