webassembly/ejemplos_results/3/folder3_json_74.txt
value = 3;
fgas = [1, 1, 1];
fsize = [1, 1, 1];
states = 
[|    in_0,    '.',    '.', '.', '.', '.', '.',  '.'
 |  's(0)',    '.',    '.', '.', '.', '.', '.', in_0
 | local_1, 's(0)',    '.', '.', '.', '.', '.',  '.'
 |  's(2)', 's(1)', 's(0)', '.', '.', '.', '.',  '.'
 |];
register_states = 
[| '.', '.', '.'
 | '.', '.', '.'
 | '.', '.', '.'
 | '.', '.', '.'
 |];
program = [O('i32.load8_u_0'), O('local.get_0'), O('call[function_index(0)]_2')];
% time elapsed: 0.05 s
----------
==========
% time elapsed: 0.05 s
% [value > 2]
